
Gurobi 6.0.4 (win64) logging started 06/21/15 10:32:26

Read LP format model from file C:\MT\repository\VRPTWMS\instances\mip\fuel\N12-C_DV100-C_SV30_F6_12_No_1.lp
Reading time = 0.02 seconds
(null): 865 rows, 392 columns, 3639 nonzeros
Optimize a model with 865 rows, 392 columns and 3639 nonzeros
Model has 1728 quadratic constraints
Coefficient statistics:
  Matrix range    [1e+00, 1e+06]
  Objective range [4e+04, 1e+07]
  Bounds range    [1e+00, 1e+06]
  RHS range       [1e+00, 1e+06]
Presolve removed 85 rows and 38 columns
Presolve time: 0.19s
Presolved: 3643 rows, 1784 columns, 20203 nonzeros
Variable types: 1430 continuous, 354 integer (304 binary)
Found heuristic solution: objective 1.249854e+08

Root relaxation: objective 1.913411e+06, 164 iterations, 0.01 seconds

    Nodes    |    Current Node    |     Objective Bounds      |     Work
 Expl Unexpl |  Obj  Depth IntInf | Incumbent    BestBd   Gap | It/Node Time

     0     0 1913411.35    0   48 1.2499e+08 1913411.35  98.5%     -    0s
H    0     0                    1.045628e+08 1913411.35  98.2%     -    0s
     0     0 1976774.32    0   56 1.0456e+08 1976774.32  98.1%     -    0s
     0     0 2069822.53    0   52 1.0456e+08 2069822.53  98.0%     -    0s
     0     0 2118844.14    0   48 1.0456e+08 2118844.14  98.0%     -    0s
H    0     0                    8.408680e+07 2118844.14  97.5%     -    0s
     0     0 2136850.14    0   56 8.4087e+07 2136850.14  97.5%     -    0s
     0     0 2174664.19    0   57 8.4087e+07 2174664.19  97.4%     -    0s
H    0     0                    7.418940e+07 2174664.19  97.1%     -    0s
     0     0 2178485.16    0   50 7.4189e+07 2178485.16  97.1%     -    0s
H    0     0                    5.340660e+07 2178485.16  95.9%     -    0s
     0     0 2178485.16    0   45 5.3407e+07 2178485.16  95.9%     -    0s
     0     2 2178485.16    0   44 5.3407e+07 2178485.16  95.9%     -    0s
H   31    33                    4.304690e+07 1.1755e+07  72.7%  24.9    0s
H  130   103                    4.302180e+07 1.1772e+07  72.6%  22.8    0s
H  159   125                    4.286190e+07 1.1772e+07  72.5%  23.3    0s
  1895   477 2.2361e+07   30   24 4.2862e+07 1.2352e+07  71.2%  25.3    5s
  3856   759 infeasible   42      4.2862e+07 1.8903e+07  55.9%  24.1   10s
* 4253   747             178    4.281300e+07 2.2078e+07  48.4%  23.5   10s
H 5868   792                    4.276990e+07 2.2582e+07  47.2%  22.8   13s
  6863   738     cutoff   41      4.2770e+07 2.2780e+07  46.7%  22.8   15s
H 7506   667                    4.276450e+07 2.2918e+07  46.4%  22.8   16s
 10085   282 infeasible   24      4.2765e+07 3.2672e+07  23.6%  21.7   20s

Cutting planes:
  Learned: 1
  Gomory: 2
  Cover: 5
  Implied bound: 2
  Clique: 2
  MIR: 1
  GUB cover: 10

Explored 10828 nodes (229917 simplex iterations) in 20.94 seconds
Thread count was 2 (of 4 available processors)

Optimal solution found (tolerance 1.00e-04)
Best objective 4.276450000000e+07, best bound 4.276450000000e+07, gap 0.0%
k_c1	930000.0
k_c10	140000.0
k_c11	80000.0
k_c12	1000000.0
k_c2	50000.0
k_c3	870000.0
k_c4	40000.0
k_c5	50000.0
k_c6	40000.0
k_c7	30000.0
k_c8	90000.0
k_c9	110000.0
k_dN	-0.0
o_1	-0.0
o_10	-0.0
o_11	-0.0
o_12	-0.0
o_2	-0.0
o_3	-0.0
o_4	0.0
o_5	-0.0
o_6	-0.0
o_7	0.0
o_8	-0.0
o_9	-0.0
p_1	-0.0
p_10	-0.0
p_11	0.0
p_12	0.0
p_2	-0.0
p_3	0.0
p_4	0.0
p_5	-0.0
p_6	-0.0
p_7	-0.0
p_8	0.0
p_9	0.0
phi_c1	47503.0
phi_c10	48974.0
phi_c11	18946.0
phi_c12	43670.0
phi_c2	20739.0
phi_c3	52761.0
phi_c4	8998.0
phi_c5	31815.0
phi_c6	7359.0
phi_c7	20924.0
phi_c8	18514.0
phi_c9	28750.0
phi_d0	60000.0
phi_dN	-0.0
tauD_c1	100000.0
tauD_c10	400000.0
tauD_c11	792825.0
tauD_c12	250000.0
tauD_c2	450000.0
tauD_c3	100000.0
tauD_c4	850000.0
tauD_c5	359300.0
tauD_c6	842725.0
tauD_c7	450000.0
tauD_c8	778575.0
tauD_c9	640325.0
tauD_d0	-0.0
tauD_dN	1000000.0
tauS_c1	86300.0
tauS_c10	156700.0
tauS_c11	76025.0
tauS_c12	84500.0
tauS_c2	94950.0
tauS_c3	162725.0
tauS_c4	68625.0
tauS_c5	126775.0
tauS_c6	162525.0
tauS_c7	134825.0
tauS_c8	148900.0
tauS_c9	132500.0
tauS_d0	-0.0
tauS_dN	40225.0
x_c10_c9	1.0
x_c11_c4	1.0
x_c12_c5	1.0
x_c1_c11	1.0
x_c2_dN	1.0
x_c3_c10	1.0
x_c4_dN	1.0
x_c5_c7	1.0
x_c6_dN	1.0
x_c7_dN	1.0
x_c8_c6	1.0
x_c9_c8	1.0
x_d0_c1	1.0
x_d0_c12	1.0
x_d0_c2	1.0
x_d0_c3	1.0
